WARNING: for repeatability, setting FPU to use double precision
============================[ Problem Statistics ]=============================
|                                                                             |
|  Number of symmetries:          99                                          |
|  Number of invertingSyms:        0                                          |
|  Number of variables:          2550                                         |
|  Number of clauses:           63801                                         |
|  Parse time:                   0.00 s                                       |
|                                                                             |
============================[ Search Statistics ]==============================
| Conflicts |          ORIGINAL         |          LEARNT          | Progress |
|           |    Vars  Clauses Literals |    Limit  Clauses Lit/Cl |          |
===============================================================================
|       100 |    2550    63801   130050 |    23393      102    690 |  0.000 % |
|       250 |    2550    63801   130050 |    25733      339    426 |  0.000 % |
|       475 |    2550    63801   130050 |    28306      608    347 |  0.000 % |
|       812 |    2550    63801   130050 |    31137     1034    291 |  0.000 % |
|      1318 |    2550    63801   130050 |    34250     1763    264 |  0.000 % |
|      2077 |    2550    63801   130050 |    37675     3016    252 |  0.000 % |
|      3216 |    2550    63801   130050 |    41443     4375    262 |  0.000 % |
|      4924 |    2550    63801   130050 |    45587     7305    252 |  0.000 % |
|      7486 |    2550    63801   130050 |    50146    12745    287 |  0.000 % |
|     11330 |    2550    63801   130050 |    55161    18636    297 |  0.000 % |
|     17096 |    2550    63801   130050 |    60677    28287    294 |  0.000 % |
|     25745 |    2550    63801   130050 |    66744    40027    291 |  0.000 % |
|     38719 |    2550    63801   130050 |    73419    57497    309 |  0.000 % |
|     58180 |    2550    63801   130050 |    80761    24246    308 |  0.000 % |
|     87372 |    2550    63801   130050 |    88837    59995    315 |  0.000 % |
|    131161 |    2550    63801   130050 |    97721    45474    300 |  0.000 % |
|    196845 |    2550    63801   130050 |   107493    45523    330 |  0.000 % |
|    295371 |    2550    63801   130050 |   118242    84326    304 |  0.000 % |
|    443160 |    2550    63801   130050 |   130067    65082    357 |  0.000 % |
|    664843 |    2550    63801   130050 |   143073   122299    327 |  0.000 % |
|    997368 |    2550    63801   130050 |   157381    42377    411 |  0.000 % |
|   1496156 |    2550    63801   130050 |   173119   113134    301 |  0.000 % |
|   2244338 |    2550    63801   130050 |   190431   127089    483 |  0.000 % |
|   3366612 |    2550    63801   130050 |   209474   170441    321 |  0.000 % |
|   5050023 |    2550    63801   130050 |   230421   104860    410 |  0.000 % |
|   7575139 |    2550    63801   130050 |   253463    94894    471 |  0.000 % |
|  11362814 |    2550    63801   130050 |   278810    83084    477 |  0.000 % |
===============================================================================
restarts              : 24574
conflicts             : 16752032       (3306 /sec)
symconflicts          : 310869         (61 /sec)
decisions             : 51440693       (0.00 % random) (10150 /sec)
propagations          : 541956557      (106940 /sec)
sympropagations       : 4399546        (868 /sec)
conflict literals     : 7079868583     (3.10 % deleted)
Memory used           : 1143.00 MB
CPU time              : 5067.85 s

INDETERMINATE
